p wcnf 9 33 199
199 1 3 0
199 1 4 0
199 1 5 0
199 1 6 0
199 1 8 0
199 1 9 0
199 2 3 0
199 2 4 0
199 2 5 0
199 2 7 0
199 2 8 0
199 2 9 0
199 3 5 0
199 3 6 0
199 3 7 0
199 3 8 0
199 3 9 0
199 4 5 0
199 5 7 0
199 5 8 0
199 6 7 0
199 7 8 0
199 7 9 0
199 8 9 0
18 -1 0
18 -2 0
17 -3 0
21 -4 0
18 -5 0
21 -6 0
18 -7 0
18 -8 0
19 -9 0
